6 6 102
3 1 1 5 2 2 2 8 28 28 56 56 96 
4 5 1 3 1 3 2 1 2 2 18 18 34 34 70 70 102 
4 6 1 6 2 6 3 5 3 5 27 27 55 55 79 79 101 
4 4 1 2 1 4 2 4 3 13 35 35 51 51 77 77 101 
7 6 1 1 1 1 1 2 1 2 1 1 2 1 2 0 5 5 7 7 8 8 14 14 20 26 28 28 29 
9 5 1 4 1 4 1 3 1 3 1 5 2 2 2 2 2 5 3 0 2 2 7 7 13 13 14 14 16 18 24 46 51 51 53 56 60 
